NAME : E-n76-k8.537238.tour
COMMENT : Length = 537238
COMMENT : Found by LKH [Keld Helsgaun] Sun Dec 17 21:58:39 2017
TYPE : TOUR
DIMENSION : 83
TOUR_SECTION
1
13
41
10
40
73
59
11
32
83
27
8
36
54
12
67
66
39
81
68
35
47
9
55
20
15
60
78
53
28
14
58
16
6
38
21
71
61
72
37
70
77
5
46
30
49
48
22
62
80
76
69
3
31
75
29
63
23
65
79
7
34
74
2
44
43
42
57
24
50
25
82
18
52
64
17
4
45
33
51
19
26
56
-1
EOF
